; SWAP3 AND SWAP2 SWAP1 SWAP2 => SWAP2 SWAP3 AND
(set-option :produce-proofs true)
; 
(set-info :status unknown)
(declare-fun storage_t ((_ BitVec 256) (_ BitVec 256) (_ BitVec 256) (_ BitVec 256) Int (_ BitVec 256)) (_ BitVec 256))
(declare-fun storage_s ((_ BitVec 256) (_ BitVec 256) (_ BitVec 256) (_ BitVec 256) Int (_ BitVec 256)) (_ BitVec 256))
(declare-fun exc_halt_t (Int) Bool)
(declare-fun exc_halt_s (Int) Bool)
(declare-fun stack_t ((_ BitVec 256) (_ BitVec 256) (_ BitVec 256) (_ BitVec 256) Int (_ BitVec 6)) (_ BitVec 256))
(declare-fun stack_s ((_ BitVec 256) (_ BitVec 256) (_ BitVec 256) (_ BitVec 256) Int (_ BitVec 6)) (_ BitVec 256))
(declare-fun sc_t (Int) (_ BitVec 6))
(declare-fun sc_s (Int) (_ BitVec 6))
(declare-fun used_gas_t ((_ BitVec 256) (_ BitVec 256) (_ BitVec 256) (_ BitVec 256) Int) Int)
(declare-fun used_gas_s ((_ BitVec 256) (_ BitVec 256) (_ BitVec 256) (_ BitVec 256) Int) Int)
(assert
 (exists ((x_0 (_ BitVec 256)) (x_1 (_ BitVec 256)) (x_2 (_ BitVec 256)) (x_3 (_ BitVec 256)) )(let (($x8247 (forall ((w (_ BitVec 256)) )(let ((?x6161 (storage_t x_0 x_1 x_2 x_3 3 w)))
 (let ((?x6350 (storage_s x_0 x_1 x_2 x_3 5 w)))
 (= ?x6350 ?x6161))))
 ))
 (let (($x8030 (exc_halt_t 3)))
 (let (($x3979 (exc_halt_s 5)))
 (let (($x3199 (= $x3979 $x8030)))
 (let (($x5804 (forall ((n (_ BitVec 6)) )(let ((?x6030 (stack_t x_0 x_1 x_2 x_3 3 n)))
 (let ((?x6343 (stack_s x_0 x_1 x_2 x_3 5 n)))
 (let (($x8249 (= ?x6343 ?x6030)))
 (let ((?x2012 (sc_t 3)))
 (let (($x7542 (bvsle ?x2012 n)))
 (or $x7542 $x8249)))))))
 ))
 (let ((?x2012 (sc_t 3)))
 (let ((?x805 (sc_s 5)))
 (let (($x2689 (= ?x805 ?x2012)))
 (let ((?x6269 (used_gas_t x_0 x_1 x_2 x_3 0)))
 (let ((?x6947 (used_gas_s x_0 x_1 x_2 x_3 0)))
 (let (($x6909 (= ?x6947 ?x6269)))
 (let (($x6911 (forall ((w (_ BitVec 256)) )(let ((?x6254 (storage_t x_0 x_1 x_2 x_3 0 w)))
 (let ((?x6786 (storage_s x_0 x_1 x_2 x_3 0 w)))
 (= ?x6786 ?x6254))))
 ))
 (let (($x56 (exc_halt_t 0)))
 (let (($x57 (exc_halt_s 0)))
 (let (($x58 (= $x57 $x56)))
 (let (($x6971 (forall ((n (_ BitVec 6)) )(let ((?x6215 (stack_t x_0 x_1 x_2 x_3 0 n)))
 (let ((?x8632 (stack_s x_0 x_1 x_2 x_3 0 n)))
 (let (($x6216 (= ?x8632 ?x6215)))
 (let ((?x63 (sc_t 0)))
 (let (($x3675 (bvsle ?x63 n)))
 (or $x3675 $x6216)))))))
 ))
 (let ((?x63 (sc_t 0)))
 (let ((?x72 (sc_s 0)))
 (let (($x73 (= ?x72 ?x63)))
 (let (($x8029 (= $x8030 (or (exc_halt_t 2) (not (bvsle (_ bv0 6) (bvadd (_ bv62 6) (sc_t 2))))))))
 (let (($x6595 (forall ((w (_ BitVec 256)) )(let ((?x5977 (storage_t x_0 x_1 x_2 x_3 2 w)))
 (let ((?x6161 (storage_t x_0 x_1 x_2 x_3 3 w)))
 (= ?x6161 ?x5977))))
 ))
 (let (($x5573 (forall ((n (_ BitVec 6)) )(let ((?x4056 (sc_t 2)))
 (let ((?x2229 (bvadd (_ bv62 6) ?x4056)))
 (let (($x8323 (bvsle ?x2229 n)))
 (let ((?x5662 (stack_t x_0 x_1 x_2 x_3 2 n)))
 (let ((?x6030 (stack_t x_0 x_1 x_2 x_3 3 n)))
 (let (($x6614 (= ?x6030 ?x5662)))
 (or $x6614 $x8323))))))))
 ))
 (let ((?x5887 (used_gas_t x_0 x_1 x_2 x_3 3)))
 (let (($x6603 (= ?x5887 (+ 3 (used_gas_t x_0 x_1 x_2 x_3 2)))))
 (let ((?x5825 (bvor (bvnot (stack_t x_0 x_1 x_2 x_3 2 (bvadd (_ bv63 6) (sc_t 2)))) (bvnot (stack_t x_0 x_1 x_2 x_3 2 (bvadd (_ bv62 6) (sc_t 2)))))))
 (let ((?x3673 (bvadd (_ bv63 6) ?x2012)))
 (let ((?x6623 (stack_t x_0 x_1 x_2 x_3 3 ?x3673)))
 (let (($x903 (exc_halt_t 2)))
 (let (($x7934 (= $x903 (or (exc_halt_t 1) (not (bvsle (_ bv0 6) (bvadd (_ bv60 6) (sc_t 1))))))))
 (let (($x6630 (forall ((w (_ BitVec 256)) )(let ((?x5466 (storage_t x_0 x_1 x_2 x_3 1 w)))
 (let ((?x5977 (storage_t x_0 x_1 x_2 x_3 2 w)))
 (= ?x5977 ?x5466))))
 ))
 (let (($x5828 (forall ((n (_ BitVec 6)) )(let ((?x5554 (stack_t x_0 x_1 x_2 x_3 1 n)))
 (let ((?x5662 (stack_t x_0 x_1 x_2 x_3 2 n)))
 (let (($x6635 (= ?x5662 ?x5554)))
 (let ((?x4023 (sc_t 1)))
 (let ((?x3661 (bvadd (_ bv60 6) ?x4023)))
 (let (($x2947 (bvsle ?x3661 n)))
 (or $x2947 $x6635))))))))
 ))
 (let ((?x4023 (sc_t 1)))
 (let ((?x4056 (sc_t 2)))
 (let (($x2318 (= ?x4056 ?x4023)))
 (let ((?x5661 (used_gas_t x_0 x_1 x_2 x_3 2)))
 (let (($x6648 (= ?x5661 (+ 3 (used_gas_t x_0 x_1 x_2 x_3 1)))))
 (let ((?x4102 (bvadd (_ bv62 6) ?x4023)))
 (let ((?x6641 (stack_t x_0 x_1 x_2 x_3 1 ?x4102)))
 (let ((?x2229 (bvadd (_ bv62 6) ?x4056)))
 (let ((?x6653 (stack_t x_0 x_1 x_2 x_3 2 ?x2229)))
 (let ((?x2150 (bvadd (_ bv61 6) ?x4023)))
 (let ((?x7780 (stack_t x_0 x_1 x_2 x_3 1 ?x2150)))
 (let ((?x2159 (bvadd (_ bv61 6) ?x4056)))
 (let ((?x6619 (stack_t x_0 x_1 x_2 x_3 2 ?x2159)))
 (let ((?x2639 (bvadd (_ bv63 6) ?x4023)))
 (let ((?x6700 (stack_t x_0 x_1 x_2 x_3 1 ?x2639)))
 (let ((?x2153 (bvadd (_ bv60 6) ?x4056)))
 (let ((?x6639 (stack_t x_0 x_1 x_2 x_3 2 ?x2153)))
 (let ((?x7929 (bvadd (_ bv63 6) ?x4056)))
 (let ((?x6642 (stack_t x_0 x_1 x_2 x_3 2 ?x7929)))
 (let (($x6676 (forall ((w (_ BitVec 256)) )(let ((?x6254 (storage_t x_0 x_1 x_2 x_3 0 w)))
 (let ((?x5466 (storage_t x_0 x_1 x_2 x_3 1 w)))
 (= ?x5466 ?x6254))))
 ))
 (let (($x7701 (forall ((n (_ BitVec 6)) )(let ((?x6215 (stack_t x_0 x_1 x_2 x_3 0 n)))
 (let ((?x5554 (stack_t x_0 x_1 x_2 x_3 1 n)))
 (let (($x6667 (= ?x5554 ?x6215)))
 (let ((?x63 (sc_t 0)))
 (let ((?x1144 (bvadd (_ bv61 6) ?x63)))
 (let (($x746 (bvsle ?x1144 n)))
 (or $x746 $x6667))))))))
 ))
 (let (($x2699 (= ?x4023 ?x63)))
 (let ((?x6829 (used_gas_t x_0 x_1 x_2 x_3 1)))
 (let (($x6663 (= ?x6829 (+ 3 ?x6269))))
 (let (($x9879 (= $x3979 (or (exc_halt_s 4) (not (bvsle (_ bv0 6) (bvadd (_ bv61 6) (sc_s 4))))))))
 (let (($x6716 (forall ((w (_ BitVec 256)) )(let ((?x6325 (storage_s x_0 x_1 x_2 x_3 4 w)))
 (let ((?x6350 (storage_s x_0 x_1 x_2 x_3 5 w)))
 (= ?x6350 ?x6325))))
 ))
 (let (($x299 (forall ((n (_ BitVec 6)) )(let ((?x6314 (stack_s x_0 x_1 x_2 x_3 4 n)))
 (let ((?x6343 (stack_s x_0 x_1 x_2 x_3 5 n)))
 (let (($x6743 (= ?x6343 ?x6314)))
 (let ((?x4305 (sc_s 4)))
 (let ((?x10003 (bvadd (_ bv61 6) ?x4305)))
 (let (($x3353 (bvsle ?x10003 n)))
 (or $x3353 $x6743))))))))
 ))
 (let ((?x4305 (sc_s 4)))
 (let (($x3364 (= ?x805 ?x4305)))
 (let ((?x7057 (used_gas_s x_0 x_1 x_2 x_3 5)))
 (let (($x6739 (= ?x7057 (+ 3 (used_gas_s x_0 x_1 x_2 x_3 4)))))
 (let ((?x3773 (bvadd (_ bv62 6) ?x4305)))
 (let ((?x7468 (stack_s x_0 x_1 x_2 x_3 4 ?x3773)))
 (let (($x7469 (= (stack_s x_0 x_1 x_2 x_3 5 (bvadd (_ bv62 6) ?x805)) ?x7468)))
 (let ((?x374 (bvadd (_ bv63 6) ?x4305)))
 (let ((?x6740 (stack_s x_0 x_1 x_2 x_3 4 ?x374)))
 (let (($x7501 (= (stack_s x_0 x_1 x_2 x_3 5 (bvadd (_ bv61 6) ?x805)) ?x6740)))
 (let ((?x930 (bvadd (_ bv63 6) ?x805)))
 (let ((?x6724 (stack_s x_0 x_1 x_2 x_3 5 ?x930)))
 (let (($x7494 (= ?x6724 (stack_s x_0 x_1 x_2 x_3 4 (bvadd (_ bv61 6) ?x4305)))))
 (let (($x64 (exc_halt_s 4)))
 (let (($x2838 (= $x64 (or (exc_halt_s 3) (not (bvsle (_ bv0 6) (bvadd (_ bv62 6) (sc_s 3))))))))
 (let (($x6730 (forall ((w (_ BitVec 256)) )(let ((?x7177 (storage_s x_0 x_1 x_2 x_3 3 w)))
 (let ((?x6325 (storage_s x_0 x_1 x_2 x_3 4 w)))
 (= ?x6325 ?x7177))))
 ))
 (let (($x8212 (forall ((n (_ BitVec 6)) )(let ((?x6308 (stack_s x_0 x_1 x_2 x_3 3 n)))
 (let ((?x6314 (stack_s x_0 x_1 x_2 x_3 4 n)))
 (let (($x6736 (= ?x6314 ?x6308)))
 (let ((?x275 (sc_s 3)))
 (let ((?x2605 (bvadd (_ bv62 6) ?x275)))
 (let (($x3177 (bvsle ?x2605 n)))
 (or $x3177 $x6736))))))))
 ))
 (let ((?x275 (sc_s 3)))
 (let (($x1228 (= ?x4305 ?x275)))
 (let ((?x6298 (used_gas_s x_0 x_1 x_2 x_3 4)))
 (let (($x6747 (= ?x6298 (+ 3 (used_gas_s x_0 x_1 x_2 x_3 3)))))
 (let (($x292 (exc_halt_s 3)))
 (let (($x3176 (= $x292 (or (exc_halt_s 2) (not (bvsle (_ bv0 6) (bvadd (_ bv61 6) (sc_s 2))))))))
 (let (($x6757 (forall ((w (_ BitVec 256)) )(let ((?x6287 (storage_s x_0 x_1 x_2 x_3 2 w)))
 (let ((?x7177 (storage_s x_0 x_1 x_2 x_3 3 w)))
 (= ?x7177 ?x6287))))
 ))
 (let (($x7831 (forall ((n (_ BitVec 6)) )(let ((?x6271 (stack_s x_0 x_1 x_2 x_3 2 n)))
 (let ((?x6308 (stack_s x_0 x_1 x_2 x_3 3 n)))
 (let (($x6438 (= ?x6308 ?x6271)))
 (let ((?x218 (sc_s 2)))
 (let ((?x2615 (bvadd (_ bv61 6) ?x218)))
 (let (($x2950 (bvsle ?x2615 n)))
 (or $x2950 $x6438))))))))
 ))
 (let ((?x218 (sc_s 2)))
 (let (($x3185 (= ?x275 ?x218)))
 (let ((?x6293 (used_gas_s x_0 x_1 x_2 x_3 3)))
 (let (($x7005 (= ?x6293 (+ 3 (used_gas_s x_0 x_1 x_2 x_3 2)))))
 (let ((?x3182 (bvadd (_ bv62 6) ?x218)))
 (let ((?x2470 (stack_s x_0 x_1 x_2 x_3 2 ?x3182)))
 (let ((?x2605 (bvadd (_ bv62 6) ?x275)))
 (let ((?x7350 (stack_s x_0 x_1 x_2 x_3 3 ?x2605)))
 (let ((?x3831 (bvadd (_ bv63 6) ?x218)))
 (let ((?x6982 (stack_s x_0 x_1 x_2 x_3 2 ?x3831)))
 (let ((?x223 (bvadd (_ bv61 6) ?x275)))
 (let ((?x6780 (stack_s x_0 x_1 x_2 x_3 3 ?x223)))
 (let ((?x2615 (bvadd (_ bv61 6) ?x218)))
 (let ((?x7109 (stack_s x_0 x_1 x_2 x_3 2 ?x2615)))
 (let ((?x3193 (bvadd (_ bv63 6) ?x275)))
 (let ((?x1944 (stack_s x_0 x_1 x_2 x_3 3 ?x3193)))
 (let (($x247 (exc_halt_s 2)))
 (let (($x6431 (= $x247 (or (exc_halt_s 1) (not (bvsle (_ bv0 6) (bvadd (_ bv62 6) (sc_s 1))))))))
 (let (($x6996 (forall ((w (_ BitVec 256)) )(let ((?x6240 (storage_s x_0 x_1 x_2 x_3 1 w)))
 (let ((?x6287 (storage_s x_0 x_1 x_2 x_3 2 w)))
 (= ?x6287 ?x6240))))
 ))
 (let (($x6995 (forall ((n (_ BitVec 6)) )(let ((?x6229 (stack_s x_0 x_1 x_2 x_3 1 n)))
 (let ((?x6271 (stack_s x_0 x_1 x_2 x_3 2 n)))
 (let (($x6994 (= ?x6271 ?x6229)))
 (or (bvsle (bvadd (_ bv62 6) (sc_s 1)) n) $x6994)))))
 ))
 (let ((?x7201 (used_gas_s x_0 x_1 x_2 x_3 2)))
 (let (($x6991 (= ?x7201 (+ 3 (used_gas_s x_0 x_1 x_2 x_3 1)))))
 (let ((?x7858 (bvor (bvnot (stack_s x_0 x_1 x_2 x_3 1 (bvadd (_ bv63 6) (sc_s 1)))) (bvnot (stack_s x_0 x_1 x_2 x_3 1 (bvadd (_ bv62 6) (sc_s 1)))))))
 (let (($x6988 (forall ((w (_ BitVec 256)) )(let ((?x6786 (storage_s x_0 x_1 x_2 x_3 0 w)))
 (let ((?x6240 (storage_s x_0 x_1 x_2 x_3 1 w)))
 (= ?x6240 ?x6786))))
 ))
 (let (($x7189 (forall ((n (_ BitVec 6)) )(let ((?x8632 (stack_s x_0 x_1 x_2 x_3 0 n)))
 (let ((?x6229 (stack_s x_0 x_1 x_2 x_3 1 n)))
 (let (($x6985 (= ?x6229 ?x8632)))
 (or $x6985 (bvsle (bvadd (_ bv60 6) (sc_s 0)) n))))))
 ))
 (let ((?x154 (sc_s 1)))
 (let (($x6404 (= ?x154 ?x72)))
 (let ((?x6228 (used_gas_s x_0 x_1 x_2 x_3 1)))
 (let (($x6406 (= ?x6228 (+ 3 ?x6947))))
 (let ((?x8534 (bvadd (_ bv62 6) ?x72)))
 (let ((?x6107 (stack_s x_0 x_1 x_2 x_3 0 ?x8534)))
 (let ((?x3571 (bvadd (_ bv62 6) ?x154)))
 (let ((?x6102 (stack_s x_0 x_1 x_2 x_3 1 ?x3571)))
 (let (($x6108 (= ?x6102 ?x6107)))
 (let ((?x8501 (bvadd (_ bv61 6) ?x72)))
 (let ((?x6042 (stack_s x_0 x_1 x_2 x_3 0 ?x8501)))
 (let ((?x8345 (bvadd (_ bv61 6) ?x154)))
 (let ((?x6127 (stack_s x_0 x_1 x_2 x_3 1 ?x8345)))
 (let ((?x3338 (bvadd (_ bv63 6) ?x72)))
 (let ((?x6402 (stack_s x_0 x_1 x_2 x_3 0 ?x3338)))
 (let ((?x8708 (bvadd (_ bv60 6) ?x154)))
 (let ((?x7155 (stack_s x_0 x_1 x_2 x_3 1 ?x8708)))
 (let ((?x7254 (bvadd (_ bv60 6) ?x72)))
 (let ((?x7382 (stack_s x_0 x_1 x_2 x_3 0 ?x7254)))
 (let ((?x3842 (bvadd (_ bv63 6) ?x154)))
 (let ((?x6134 (stack_s x_0 x_1 x_2 x_3 1 ?x3842)))
 (let (($x7256 (= ?x6134 ?x7382)))
 (let (($x883 (forall ((w (_ BitVec 256)) )(let ((?x6786 (storage_s x_0 x_1 x_2 x_3 0 w)))
 (= ?x6786 (_ bv0 256))))
 ))
 (let (($x9996 (= ?x6947 0)))
 (let (($x3853 (not $x57)))
 (let (($x7465 (= (stack_s x_0 x_1 x_2 x_3 0 (_ bv3 6)) x_3)))
 (let (($x6778 (= (stack_s x_0 x_1 x_2 x_3 0 (_ bv2 6)) x_2)))
 (let (($x6163 (= (stack_s x_0 x_1 x_2 x_3 0 (_ bv1 6)) x_1)))
 (let (($x6196 (= (stack_s x_0 x_1 x_2 x_3 0 (_ bv0 6)) x_0)))
 (let (($x3266 (= ?x72 (_ bv4 6))))
 (and $x3266 $x6196 $x6163 $x6778 $x7465 $x3853 $x9996 $x883 $x7256 (= ?x7155 ?x6402) (= ?x6127 ?x6042) $x6108 $x6406 $x6404 $x7189 $x6988 (= (exc_halt_s 1) (or $x57 (not (bvsle (_ bv0 6) ?x7254)))) (= ?x6982 (bvnot ?x7858)) $x6991 (= ?x218 ?x3842) $x6995 $x6996 $x6431 (= ?x1944 ?x7109) (= ?x6780 ?x6982) (= ?x7350 ?x2470) $x7005 $x3185 $x7831 $x6757 $x3176 (= ?x6740 ?x7350) (= ?x7468 ?x1944) $x6747 $x1228 $x8212 $x6730 $x2838 $x7494 $x7501 $x7469 $x6739 $x3364 $x299 $x6716 $x9879 (= ?x6700 (stack_t x_0 x_1 x_2 x_3 0 (bvadd (_ bv61 6) ?x63))) (= ?x7780 (stack_t x_0 x_1 x_2 x_3 0 (bvadd (_ bv63 6) ?x63))) (= ?x6641 (stack_t x_0 x_1 x_2 x_3 0 (bvadd (_ bv62 6) ?x63))) $x6663 $x2699 $x7701 $x6676 (= (exc_halt_t 1) (or $x56 (not (bvsle (_ bv0 6) (bvadd (_ bv61 6) ?x63))))) (= ?x6642 (stack_t x_0 x_1 x_2 x_3 1 (bvadd (_ bv60 6) ?x4023))) (= ?x6639 ?x6700) (= ?x6619 ?x7780) (= ?x6653 ?x6641) $x6648 $x2318 $x5828 $x6630 $x7934 (= ?x6623 (bvnot ?x5825)) $x6603 (= ?x2012 ?x7929) $x5573 $x6595 $x8029 $x73 $x6971 $x58 $x6911 $x6909 (not (and $x2689 $x5804 $x3199 $x8247))))))))))))))))))))))))))))))))))))))))))))))))))))))))))))))))))))))))))))))))))))))))))))))))))))))))))))))))))))))))))))))))))))))))))))))
 )
(check-sat)
(get-proof)
